169 48 131 29 9 89 126 41 107 157 97 
163 28 132 124 200 7 179 18 95 90 174 193 
92 5 78 81 194 60 141 75 67 
15 180 106 38 160 109 80 70 
100 112 45 165 56 65 168 101 74 8 
37 173 58 197 186 178 145 93 
4 59 114 177 155 191 123 17 19 146 36 
54 127 72 21 50 158 135 185 2 
171 153 14 42 63 149 138 91 
199 69 118 105 62 122 
43 156 190 167 187 22 
24 183 61 117 108 23 189 192 
49 172 159 20 110 198 
184 98 129 195 16 147 52 116 
6 130 134 113 84 87 115 79 76 
140 176 164 10 77 46 82 96 39 
57 133 152 136 68 27 111 44 
88 150 161 51 154 
103 142 143 188 125 33 66 55 175 
47 182 31 85 32 151 86 13 11 30 
162 26 181 139 144 71 137 1 34 120 
196 102 3 119 12 166 73 83 148 
40 121 64 
128 99 94 53 
35 104 25 170 

